problems/csplib-prob015/SchursLemma-models/noch/O2/lingeling/model_1_2-6-14-solution000001.eprime-solution
language ESSENCE' 1.0

letting boxes_PartitionAsSet_ExplicitR6_ExplicitVarSizeWithDummy be
        [[1, 2, 4, 10, 15, 15, 15, 15, 15, 15, 15, 15, 15, 15; int(1..14)],
         [3, 15, 15, 15, 15, 15, 15, 15, 15, 15, 15, 15, 15, 15; int(1..14)],
         [5, 12, 15, 15, 15, 15, 15, 15, 15, 15, 15, 15, 15, 15; int(1..14)],
         [6, 15, 15, 15, 15, 15, 15, 15, 15, 15, 15, 15, 15, 15; int(1..14)],
         [7, 13, 14, 15, 15, 15, 15, 15, 15, 15, 15, 15, 15, 15; int(1..14)],
         [8, 9, 11, 15, 15, 15, 15, 15, 15, 15, 15, 15, 15, 15; int(1..14)]; int(1..6)]
