problems/csplib-prob015/SchursLemma-models/noch/O2/lingeling/model_1_2-6-14-solution000001.solution
language Essence 1.3

letting boxes be partition({1, 2, 4, 10}, {3}, {5, 12}, {6}, {7, 13, 14}, {8, 9, 11})
